Cu-30-1 <s> Cu </s>                     
   1.00000000000000     
    26.8861725961529494    0.0000000000000000    0.0000000000000000
     0.0000000000000000   26.8861725961529494    0.0000000000000000
     0.0000000000000000    0.0000000000000000   26.8861725961529494
   Cu
    30
Direct
  0.4999999999192966  0.3540238195321982  0.4831902738938604
  0.5000000000134506  0.5204152739837706  0.6341110976327407
  0.3743507176255865  0.5418420085641279  0.4495044330355696
  0.6256492824147581  0.5418420084430798  0.4495044330355696
  0.4999999999730989  0.4299277105968993  0.6171206387017667
  0.4090978875534629  0.6115216477394592  0.5002156703350037
  0.5909021125541346  0.6115216476453122  0.5002156703350037
  0.4245659048018797  0.3921582766893518  0.4543584333769490
  0.5754340950905158  0.3921582766221060  0.4543584333769490
  0.4999999999596483  0.4212602796463293  0.3892985501958443
  0.6278843437999602  0.5403399756226602  0.5424921686357970
  0.3721156562403916  0.5403399757571660  0.5424921686492475
  0.4533929278298888  0.5945898884255002  0.4208758072756275
  0.5466070722642724  0.5945898883851485  0.4208758072756275
  0.4200959507677601  0.4784589053225445  0.5907029422380313
  0.5799040492053388  0.4784589052552845  0.5907029422380313
  0.4241563567743389  0.4732864557675748  0.4172627603217728
  0.5758436431987600  0.4732864556868784  0.4172627603217728
  0.6090103615329134  0.4624506642728459  0.5023130520097837
  0.3909896384267349  0.4624506643669999  0.5023130520097837
  0.4518967283727767  0.4062611289402610  0.5419739887713458
  0.5481032715330694  0.4062611288999092  0.5419739887713458
  0.5000000000134506  0.5180973649667574  0.4025716671069520
  0.4537381571251530  0.5696012781057120  0.5706119130414873
  0.5462618429555434  0.5696012780653603  0.5706119130414873
  0.5000000000538023  0.6155105916494551  0.4990714290845326
  0.5000000000000000  0.4886814496737327  0.5514179320442276
  0.4536314302380047  0.5318361192424723  0.4857220173729909
  0.5463685697888964  0.5318361192021135  0.4857220173729909
  0.4999999999730989  0.4473908129290104  0.4711520384979646
 
  0.00000000E+00  0.00000000E+00  0.00000000E+00
  0.00000000E+00  0.00000000E+00  0.00000000E+00
  0.00000000E+00  0.00000000E+00  0.00000000E+00
  0.00000000E+00  0.00000000E+00  0.00000000E+00
  0.00000000E+00  0.00000000E+00  0.00000000E+00
  0.00000000E+00  0.00000000E+00  0.00000000E+00
  0.00000000E+00  0.00000000E+00  0.00000000E+00
  0.00000000E+00  0.00000000E+00  0.00000000E+00
  0.00000000E+00  0.00000000E+00  0.00000000E+00
  0.00000000E+00  0.00000000E+00  0.00000000E+00
  0.00000000E+00  0.00000000E+00  0.00000000E+00
  0.00000000E+00  0.00000000E+00  0.00000000E+00
  0.00000000E+00  0.00000000E+00  0.00000000E+00
  0.00000000E+00  0.00000000E+00  0.00000000E+00
  0.00000000E+00  0.00000000E+00  0.00000000E+00
  0.00000000E+00  0.00000000E+00  0.00000000E+00
  0.00000000E+00  0.00000000E+00  0.00000000E+00
  0.00000000E+00  0.00000000E+00  0.00000000E+00
  0.00000000E+00  0.00000000E+00  0.00000000E+00
  0.00000000E+00  0.00000000E+00  0.00000000E+00
  0.00000000E+00  0.00000000E+00  0.00000000E+00
  0.00000000E+00  0.00000000E+00  0.00000000E+00
  0.00000000E+00  0.00000000E+00  0.00000000E+00
  0.00000000E+00  0.00000000E+00  0.00000000E+00
  0.00000000E+00  0.00000000E+00  0.00000000E+00
  0.00000000E+00  0.00000000E+00  0.00000000E+00
  0.00000000E+00  0.00000000E+00  0.00000000E+00
  0.00000000E+00  0.00000000E+00  0.00000000E+00
  0.00000000E+00  0.00000000E+00  0.00000000E+00
  0.00000000E+00  0.00000000E+00  0.00000000E+00
