GGA = PE
IALGO = 48
IBRION = 2
ISIF = 2
ISMEAR = 0
ISPIN = 2
LCHARG = .False.
LORBIT = 11
LVTOT = .False.
LWAVE = .False.
MAGMOM = 30*3.0 
NPAR = 4
NSW = 1000
POTIM = 0.5
SIGMA = 0.0001
SYMPREC = 1e-06
