Cu-30-1 <s> Cu </s>                     
   1.00000000000000     
    26.8861725961529494    0.0000000000000000    0.0000000000000000
     0.0000000000000000   26.8861725961529494    0.0000000000000000
     0.0000000000000000    0.0000000000000000   26.8861725961529494
   Cu
    30
Direct
  0.4999999999192966  0.3539839774712898  0.4832613274082327
  0.5000000000134506  0.5204037701319061  0.6341115707336341
  0.3743578877392378  0.5418401879060055  0.4494954534497940
  0.6256421123011068  0.5418401877849575  0.4494954534497940
  0.4999999999730989  0.4299195300642886  0.6171181261315480
  0.4090944477392822  0.6115238731464337  0.5002206791510141
  0.5909055523683153  0.6115238730522868  0.5002206791510141
  0.4245829099349672  0.3921489999413286  0.4543621512210382
  0.5754170899574284  0.3921489998740829  0.4543621512210382
  0.4999999999596483  0.4213135543512276  0.3892462381386885
  0.6278691855320443  0.5403359339381204  0.5424847932848138
  0.3721308145083074  0.5403359340726261  0.5424847932982644
  0.4533912595817174  0.5946200967196753  0.4208844732445558
  0.5466087405124438  0.5946200966793236  0.4208844732445558
  0.4201045570130016  0.4784681948540778  0.5907123457622344
  0.5798954429600972  0.4784681947868178  0.5907123457622344
  0.4241701326497588  0.4732738413932085  0.4172683801834254
  0.5758298673233400  0.4732738413125122  0.4172683801834254
  0.6089854419787714  0.4624418243349284  0.5023032038077738
  0.3910145579808770  0.4624418244290824  0.5023032038077738
  0.4518860192265572  0.4062557758423206  0.5419858402074856
  0.5481139806792888  0.4062557758019689  0.5419858402074856
  0.5000000000134506  0.5181281925806681  0.4025671707533044
  0.4537405000923813  0.5696051258563695  0.5706154879372319
  0.5462594999883151  0.5696051258160177  0.5706154879372319
  0.5000000000538023  0.6155022055031210  0.4990829769228359
  0.5000000000000000  0.4886811541686231  0.5513805368837734
  0.4536336734286333  0.5318377345441873  0.4857107906230460
  0.5463663265982679  0.5318377345038284  0.4857107906230460
  0.4999999999730989  0.4473644391387301  0.4711448552697484
 
  0.00000000E+00  0.00000000E+00  0.00000000E+00
  0.00000000E+00  0.00000000E+00  0.00000000E+00
  0.00000000E+00  0.00000000E+00  0.00000000E+00
  0.00000000E+00  0.00000000E+00  0.00000000E+00
  0.00000000E+00  0.00000000E+00  0.00000000E+00
  0.00000000E+00  0.00000000E+00  0.00000000E+00
  0.00000000E+00  0.00000000E+00  0.00000000E+00
  0.00000000E+00  0.00000000E+00  0.00000000E+00
  0.00000000E+00  0.00000000E+00  0.00000000E+00
  0.00000000E+00  0.00000000E+00  0.00000000E+00
  0.00000000E+00  0.00000000E+00  0.00000000E+00
  0.00000000E+00  0.00000000E+00  0.00000000E+00
  0.00000000E+00  0.00000000E+00  0.00000000E+00
  0.00000000E+00  0.00000000E+00  0.00000000E+00
  0.00000000E+00  0.00000000E+00  0.00000000E+00
  0.00000000E+00  0.00000000E+00  0.00000000E+00
  0.00000000E+00  0.00000000E+00  0.00000000E+00
  0.00000000E+00  0.00000000E+00  0.00000000E+00
  0.00000000E+00  0.00000000E+00  0.00000000E+00
  0.00000000E+00  0.00000000E+00  0.00000000E+00
  0.00000000E+00  0.00000000E+00  0.00000000E+00
  0.00000000E+00  0.00000000E+00  0.00000000E+00
  0.00000000E+00  0.00000000E+00  0.00000000E+00
  0.00000000E+00  0.00000000E+00  0.00000000E+00
  0.00000000E+00  0.00000000E+00  0.00000000E+00
  0.00000000E+00  0.00000000E+00  0.00000000E+00
  0.00000000E+00  0.00000000E+00  0.00000000E+00
  0.00000000E+00  0.00000000E+00  0.00000000E+00
  0.00000000E+00  0.00000000E+00  0.00000000E+00
  0.00000000E+00  0.00000000E+00  0.00000000E+00
